62 4
16 19 14 12
0 0 0 0 0 3 2 3 4
7 0 0 0 7 3 5 11 17
6 0 0 10 0 3 7 9 10
1 0 0 0 2 2 15 27
1 0 0 6 0 2 6 14
1 5 0 0 0 2 44 47
8 0 0 5 0 3 8 13 16
3 0 9 0 0 3 25 31 33
6 0 0 9 0 3 18 23 35
3 0 0 8 0 2 12 50
8 0 0 0 10 3 19 24 26
1 7 0 0 0 3 21 51 52
1 0 0 0 10 1 15
5 0 9 0 0 1 60
9 0 0 2 0 1 20
5 5 0 0 0 3 22 29 59
1 1 0 0 0 2 23 46
4 0 9 0 0 3 34 36 37
9 7 0 0 0 1 42
6 0 7 0 0 1 30
6 0 9 0 0 1 41
1 3 0 0 0 1 36
6 5 0 0 0 1 38
3 6 0 0 0 1 53
10 0 10 0 0 1 50
7 0 5 0 0 2 32 40
5 8 0 0 0 2 28 49
10 0 0 0 2 2 52 57
5 0 0 5 0 1 46
7 0 0 10 0 1 43
8 0 0 0 7 1 60
8 0 8 0 0 1 58
7 0 0 0 8 1 43
8 0 0 10 0 1 44
6 6 0 0 0 2 42 49
6 0 9 0 0 1 46
7 0 0 0 2 1 39
5 10 0 0 0 1 42
8 0 9 0 0 1 56
9 0 0 5 0 1 45
6 0 0 0 5 2 48 56
1 0 6 0 0 1 43
1 8 0 0 0 1 51
2 0 4 0 0 1 50
6 0 0 1 0 1 51
5 0 0 0 6 2 48 55
2 0 3 0 0 1 61
6 0 0 1 0 1 60
5 6 0 0 0 1 57
1 0 0 1 0 2 52 54
4 0 10 0 0 1 56
4 0 0 10 0 1 58
4 10 0 0 0 1 55
9 6 0 0 0 1 61
9 0 0 4 0 1 61
8 0 0 0 7 1 57
8 0 0 1 0 1 59
5 0 0 2 0 1 59
9 0 0 3 0 1 62
1 7 0 0 0 1 62
3 0 0 0 10 1 62
0 0 0 0 0 0
